%-----------------------------------------------------
% Quantity
%-----------------------------------------------------

numberOfCranes = 3;
numberOfStowFactors = 3; 
totalTimeSlots = 100;
totalOfContainers = 100;

%-----------------------------------------------------
% Names
%-----------------------------------------------------

%craneNames = ["T1","T2","T3"];
%stowFactorsNames = ["A","B","C"];
%containersNames = ["SUDU1287459", "BSI0975354", "HASU9846353", "ACCU7453485", "CNIU4532119", "CSQU7645384", "SUDU8462332", "MSKU8573540", "IMTU7677546", "SUDU0267834"];

%containersNames = ["Cont1","Cont2","Cont3","Cont4","Cont5","Cont6","Cont7","Cont8","Cont9","Cont10"];


%-----------------------------------------------------
% Data
%-----------------------------------------------------

%Rows are containers and columns are StowFactors
inventory = 
[| 1,0,0
| 1,0,0
| 0,1,0
| 1,0,0
| 0,0,1
| 0,1,0
| 0,1,0
| 0,0,1
| 0,0,1
| 1,0,0
| 1,0,0
| 1,0,0
| 0,1,0
| 1,0,0
| 0,0,1
| 0,1,0
| 0,1,0
| 0,0,1
| 0,0,1
| 1,0,0
| 1,0,0
| 1,0,0
| 0,1,0
| 1,0,0
| 0,0,1
| 0,1,0
| 0,1,0
| 0,0,1
| 0,0,1
| 1,0,0
| 1,0,0
| 1,0,0
| 0,1,0
| 1,0,0
| 0,0,1
| 0,1,0
| 0,1,0
| 0,0,1
| 0,0,1
| 1,0,0
| 1,0,0
| 1,0,0
| 0,1,0
| 1,0,0
| 0,0,1
| 0,1,0
| 0,1,0
| 0,0,1
| 0,0,1
| 1,0,0
| 1,0,0
| 1,0,0
| 0,1,0
| 1,0,0
| 0,0,1
| 0,1,0
| 0,1,0
| 0,0,1
| 0,0,1
| 1,0,0
| 1,0,0
| 1,0,0
| 0,1,0
| 1,0,0
| 0,0,1
| 0,1,0
| 0,1,0
| 0,0,1
| 0,0,1
| 1,0,0
| 1,0,0
| 1,0,0
| 0,1,0
| 1,0,0
| 0,0,1
| 0,1,0
| 0,1,0
| 0,0,1
| 0,0,1
| 1,0,0
| 1,0,0
| 1,0,0
| 0,1,0
| 1,0,0
| 0,0,1
| 0,1,0
| 0,1,0
| 0,0,1
| 0,0,1
| 1,0,0
| 1,0,0
| 1,0,0
| 0,1,0
| 1,0,0
| 0,0,1
| 0,1,0
| 0,1,0
| 0,0,1
| 0,0,1
| 1,0,0
|];

%Rows are containers and columns are Cranes
craneAssignment = 
[| 1,0,0
| 1,0,0
| 1,0,0
| 0,1,0
| 0,1,0
| 0,1,0
| 0,1,0
| 0,0,1
| 0,0,1
| 0,0,1
| 1,0,0
| 1,0,0
| 1,0,0
| 0,1,0
| 0,1,0
| 0,1,0
| 0,1,0
| 0,0,1
| 0,0,1
| 0,0,1
| 1,0,0
| 1,0,0
| 1,0,0
| 0,1,0
| 0,1,0
| 0,1,0
| 0,1,0
| 0,0,1
| 0,0,1
| 0,0,1
| 1,0,0
| 1,0,0
| 1,0,0
| 0,1,0
| 0,1,0
| 0,1,0
| 0,1,0
| 0,0,1
| 0,0,1
| 0,0,1
| 1,0,0
| 1,0,0
| 1,0,0
| 0,1,0
| 0,1,0
| 0,1,0
| 0,1,0
| 0,0,1
| 0,0,1
| 0,0,1
| 1,0,0
| 1,0,0
| 1,0,0
| 0,1,0
| 0,1,0
| 0,1,0
| 0,1,0
| 0,0,1
| 0,0,1
| 0,0,1
| 1,0,0
| 1,0,0
| 1,0,0
| 0,1,0
| 0,1,0
| 0,1,0
| 0,1,0
| 0,0,1
| 0,0,1
| 0,0,1
| 1,0,0
| 1,0,0
| 1,0,0
| 0,1,0
| 0,1,0
| 0,1,0
| 0,1,0
| 0,0,1
| 0,0,1
| 0,0,1
| 1,0,0
| 1,0,0
| 1,0,0
| 0,1,0
| 0,1,0
| 0,1,0
| 0,1,0
| 0,0,1
| 0,0,1
| 0,0,1
| 1,0,0
| 1,0,0
| 1,0,0
| 0,1,0
| 0,1,0
| 0,1,0
| 0,1,0
| 0,0,1
| 0,0,1
| 0,0,1
|];

%Rows are StowFactors and columns are TimeSlots
craneStowList =
[| 1,0,1,0,0,1,0,0,0,1,1,0,1,0,0,1,0,0,0,1,1,0,1,0,0,1,0,0,0,1,1,0,1,0,0,1,0,0,0,1,1,0,1,0,0,1,0,0,0,1,1,0,1,0,0,1,0,0,0,1,1,0,1,0,0,1,0,0,0,1,1,0,1,0,0,1,0,0,0,1,1,0,1,0,0,1,0,0,0,1,1,0,1,0,0,1,0,0,0,1,
| 0,1,0,0,0,0,1,1,0,0,0,1,0,0,0,0,1,1,0,0,0,1,0,0,0,0,1,1,0,0,0,1,0,0,0,0,1,1,0,0,0,1,0,0,0,0,1,1,0,0,0,1,0,0,0,0,1,1,0,0,0,1,0,0,0,0,1,1,0,0,0,1,0,0,0,0,1,1,0,0,0,1,0,0,0,0,1,1,0,0,0,1,0,0,0,0,1,1,0,0
| 0,0,0,1,1,0,0,0,1,0,0,0,0,1,1,0,0,0,1,0,0,0,0,1,1,0,0,0,1,0,0,0,0,1,1,0,0,0,1,0,0,0,0,1,1,0,0,0,1,0,0,0,0,1,1,0,0,0,1,0,0,0,0,1,1,0,0,0,1,0,0,0,0,1,1,0,0,0,1,0,0,0,0,1,1,0,0,0,1,0,0,0,0,1,1,0,0,0,1,0
|];